%chk=LLP_ain_resp_capped.chk
%nprocshared=8
%mem=8GB
#HF/6-31G* SCF=tight Pop=MK iop(6/33=2) iop(6/42=6) opt

ACE-LLP-NME Ain fragment for RESP charge fitting

-2 1
C    -37.633000   -69.953000   -59.381000
C    -37.890000   -68.679000   -60.184000
O    -36.946000   -67.984000   -60.540000
N    -42.317000   -74.558000   -61.909000
C    -42.792000   -73.582000   -61.102000
C    -42.707000   -73.742000   -59.606000
C    -43.423000   -72.373000   -61.679000
O    -43.910000   -71.361000   -60.906000
C    -43.490000   -72.274000   -63.157000
C    -44.103000   -71.068000   -63.823000
C    -42.921000   -73.411000   -63.931000
C    -42.377000   -74.498000   -63.259000
C    -42.997000   -73.452000   -65.444000
O    -42.296000   -72.372000   -66.037000
P    -40.876000   -72.602000   -66.732000
O    -41.008000   -73.770000   -67.666000
O    -39.930000   -72.893000   -65.595000
O    -40.636000   -71.255000   -67.373000
N    -39.152000   -68.402000   -60.512000
C    -39.505000   -67.208000   -61.291000
C    -41.015000   -67.016000   -61.369000
C    -41.694000   -68.056000   -62.249000
C    -43.145000   -67.664000   -62.500000
C    -43.813000   -68.560000   -63.539000
N    -44.085000   -69.883000   -63.007000
C    -38.888000   -65.958000   -60.725000
O    -38.576000   -65.021000   -61.459000
N    -38.731000   -65.913000   -59.404000
C    -38.149000   -64.754000   -58.751000
H    -37.571882   -69.708001   -58.320651
H    -38.449187   -70.656617   -59.544897
H    -36.694578   -70.403302   -59.704561
H    -42.686507   -72.758733   -59.136036
H    -43.575078   -74.296835   -59.250052
H    -41.797936   -74.286157   -59.349884
H    -41.988053   -75.324761   -63.834836
H    -44.043145   -73.401314   -65.745846
H    -42.562440   -74.388551   -65.793471
H    -44.517201   -71.091489   -64.820139
H    -39.885500   -69.030408   -60.216736
H    -39.106961   -67.376269   -62.291675
H    -41.220066   -66.026334   -61.777179
H    -41.428034   -67.087328   -60.362811
H    -41.663668   -69.024854   -61.750500
H    -41.168284   -68.120369   -63.201670
H    -43.173759   -66.633729   -62.854704
H    -43.696539   -67.741767   -61.563060
H    -43.153143   -68.654318   -64.401434
H    -44.752980   -68.102983   -63.848312
H    -44.270152   -69.975983   -62.018479
H    -39.022760   -66.701418   -58.844202
H    -38.003379   -63.959559   -59.482955
H    -38.818749   -64.405446   -57.964841
H    -37.188009   -65.027022   -58.315047

